n_res = 4;
rc = [ 0, 0, 0, 0 ];
n_tasks = 30;
d = [ 3, 7, 10, 9, 6, 6, 8, 1, 7, 6, 10, 8, 5, 3, 3, 4, 3, 3, 1, 9, 5, 5, 10, 10, 4, 5, 9, 1, 1, 7 ];
rr = [| 0, 0, 0, 0, 0, 0, 0, 0, 0, 0, 0, 0, 0, 0, 0, 0, 0, 0, 0, 0, 0, 0, 0, 0, 0, 0, 0, 0, 0, 0
      | 0, 0, 0, 0, 0, 0, 0, 0, 0, 0, 0, 0, 0, 0, 0, 0, 0, 0, 0, 0, 0, 0, 0, 0, 0, 0, 0, 0, 0, 0
      | 0, 0, 0, 0, 0, 0, 0, 0, 0, 0, 0, 0, 0, 0, 0, 0, 0, 0, 0, 0, 0, 0, 0, 0, 0, 0, 0, 0, 0, 0
      | 0, 0, 0, 0, 0, 0, 0, 0, 0, 0, 0, 0, 0, 0, 0, 0, 0, 0, 0, 0, 0, 0, 0, 0, 0, 0, 0, 0, 0, 0 |];
suc = [ { 11, 18, 22 },
       { 7, 12, 15 },
       { 4, 5, 21 },
       { 13, 14, 16 },
       { 6, 12, 15 },
       { 14, 20, 25 },
       { 8, 9, 13 },
       { 10, 18, 20 },
       { 10, 11, 14 },
       { 16, 25 },
       { 20, 21, 24 },
       { 13, 16, 22 },
       { 17, 23, 26 },
       { 17, 19, 22 },
       { 17, 24 },
       { 19 },
       { 18, 28, 29 },
       { 27 },
       { 24 },
       { 23, 28, 29 },
       { 23, 25 },
       { 26 },
       { 27 },
       { 26, 28 },
       { 27, 29 },
       { 30 },
       { 30 },
       {  },
       {  },
       {  } ];
